============================[ Problem Statistics ]=============================|                                                                             ||  Number of variables:          4242                                         ||  Number of clauses:           10247                                         ||  Parse time:                   0.63 s                                       ||                                                                             |============================[ Search Statistics ]==============================| Conflicts |          ORIGINAL         |          LEARNT          | Progress ||           |    Vars  Clauses Literals |    Limit  Clauses Lit/Cl |          |===============================================================================|       100 |    1591     6452  1012533 |     2365      100     53 | 62.501 % ||       250 |    1591     6452  1012533 |     2602      250     75 | 62.495 % |===============================================================================restarts              : 3conflicts             : 348            (363 /sec)decisions             : 615            (0.00 % random) (642 /sec)propagations          : 11952          (12476 /sec)conflict literals     : 28217          (94.64 % deleted)CPU time              : 0.958 sSATISFIABLE